c Output_time 26.03.2020 18:13:17_+0100 1585242797840267680
c ** Program information **
c program_name                          "QBRG_debug"
c version                               "0.3.20"
c date                                  "25.3.2020"
c gid_id                                "673970833836058123f633335630c185360d632e"
c author                                "Oliver Kullmann"
c url                                   "https://github.com/OKullmann/oklibrary/blob/master/Satisfiability/Transformers/Generators/Random/QBRG.cpp"
c ** Machine information **
c machine_name                          "chyna-Lenovo-G50-70"
c bogomips                              3791.08
c ** Compilation information **
c compiler_version                      "g++ 7.5.0"
c compilation_date                      "Mar_26_2020 11:16:30"
c compilation_options                   "--std=c++17 -pedantic -fmax-errors=5 -Wall -Wextra -g -D_GLIBCXX_DEBUG"
c NDEBUG                                0
c OPTIMIZE                              0
c ** Parameters **
c command-line                          "./QBRG_debug" "e40 a40 40" "376*1,1|2-2,1|3-3,1" "" "1,t" ""
c output                                "QuBlRaGe_120_376_1585242797840009246.qdimacs"
c options                               "filtered,renamed"
c num_quantifier_blocks                 3
c  quantifier_blocks                    1:e1-40 2:a41-80 3:e81-120
c num_clause-blocks                     1
c  clause-blocks                        376 * {1-40,1,1/2} | {41-80,1,1/2} | {81-120,1,1/2}
c num_e-seeds                           30+2=32
c  e-seeds                              1 0 1 0 4 120 2 40 1 40 0 40 1 376 3 1 1 1 1 2 2 2 1 1 2 3 3 1 1 2 1 1585242797840008592
p cnf 120 376
e 1 2 3 4 5 6 7 8 9 10 11 12 13 14 15 16 17 18 19 20 21 22 23 24 25 26 27 28 29 30 31 32 33 34 35 36 37 38 39 40 0
a 41 42 43 44 45 46 47 48 49 50 51 52 53 54 55 56 57 58 59 60 61 62 63 64 65 66 67 68 69 70 71 72 73 74 75 76 77 78 79 80 0
e 81 82 83 84 85 86 87 88 89 90 91 92 93 94 95 96 97 98 99 100 101 102 103 104 105 106 107 108 109 110 111 112 113 114 115 116 117 118 119 120 0
-23 -44 -81 0
20 44 -81 0
-36 -53 -81 0
-21 -60 -81 0
-15 69 -81 0
-18 -44 81 0
-16 45 81 0
40 -51 81 0
2 -55 81 0
-17 -55 81 0
-20 41 -82 0
32 -43 -82 0
-9 -50 -82 0
7 -55 -82 0
22 57 -82 0
-9 -43 82 0
-31 44 82 0
21 73 82 0
-36 74 82 0
26 -78 82 0
-21 42 -83 0
-12 43 -83 0
-8 44 -83 0
-4 48 -83 0
-10 55 -83 0
-14 69 -83 0
-5 80 -83 0
35 50 83 0
-33 56 83 0
-17 -74 83 0
-36 -49 -84 0
-16 50 -84 0
30 59 -84 0
28 -77 -84 0
29 -41 84 0
-8 49 84 0
6 74 84 0
-17 -60 -85 0
-17 -72 -85 0
-1 79 -85 0
12 49 85 0
4 -50 85 0
-27 -52 85 0
-15 52 85 0
37 70 85 0
-29 -79 85 0
34 79 85 0
-10 57 -86 0
-14 -59 -86 0
-29 74 -86 0
-5 -46 86 0
-28 59 86 0
15 -68 86 0
29 69 86 0
-29 77 86 0
37 -78 86 0
-10 78 86 0
25 -47 -87 0
23 -55 -87 0
-36 -62 -87 0
1 -64 -87 0
17 -75 -87 0
-14 -80 -87 0
-17 46 87 0
-20 -47 87 0
16 -58 87 0
38 -62 87 0
-25 -72 87 0
14 42 -88 0
22 -80 -88 0
-16 42 88 0
-13 -55 88 0
-18 61 88 0
5 -63 88 0
15 65 88 0
-40 70 88 0
-1 74 88 0
34 59 -89 0
25 63 -89 0
-40 -67 -89 0
-14 -43 89 0
-13 -50 89 0
8 -65 89 0
2 65 89 0
24 -77 89 0
22 -78 89 0
-6 -80 89 0
3 -48 -90 0
11 48 -90 0
-14 -49 -90 0
-11 57 -90 0
-36 60 -90 0
30 63 -90 0
12 43 90 0
-25 56 90 0
-25 59 90 0
34 75 90 0
25 -76 90 0
-25 50 -91 0
-4 61 -91 0
7 61 -91 0
31 -63 -91 0
-27 -74 -91 0
-22 76 -91 0
-14 45 91 0
-1 50 91 0
-25 -65 91 0
40 71 91 0
-21 -72 91 0
-16 79 91 0
-13 56 -92 0
21 57 -92 0
-27 62 -92 0
-14 70 -92 0
4 71 -92 0
-5 77 -92 0
-8 -44 92 0
-15 -45 92 0
-22 61 92 0
-23 -66 92 0
23 76 92 0
25 -78 92 0
18 79 92 0
-38 41 -93 0
9 64 -93 0
1 66 -93 0
32 -67 -93 0
-35 55 93 0
20 57 93 0
-23 -72 93 0
37 -77 93 0
36 45 -94 0
7 50 -94 0
4 -54 -94 0
33 -54 -94 0
-19 -59 -94 0
26 60 -94 0
33 -66 -94 0
-4 -79 -94 0
-9 -42 94 0
-3 -45 94 0
32 45 94 0
-20 56 94 0
-9 -61 94 0
15 -78 94 0
-17 -78 -95 0
20 80 -95 0
20 53 95 0
-31 -56 95 0
15 -69 95 0
27 70 95 0
32 61 -96 0
28 -73 -96 0
-34 78 -96 0
-14 56 96 0
-36 60 96 0
-22 -63 96 0
6 -67 96 0
12 -70 96 0
34 -70 96 0
34 -48 -97 0
-7 -50 -97 0
-33 -55 -97 0
-32 -57 -97 0
12 -64 -97 0
-32 -65 -97 0
8 79 -97 0
-5 45 97 0
14 -48 97 0
-37 48 97 0
-9 -52 97 0
-10 59 97 0
-7 -51 -98 0
22 65 -98 0
40 73 -98 0
-21 56 98 0
-7 -60 98 0
-24 -63 98 0
-8 63 98 0
16 -70 98 0
-35 -70 98 0
-30 73 98 0
-20 -47 -99 0
-39 49 -99 0
-3 -64 -99 0
-37 72 -99 0
-13 -73 -99 0
-15 -52 99 0
19 -71 99 0
-5 -77 99 0
2 43 -100 0
-26 53 -100 0
31 -60 -100 0
-38 -48 100 0
-22 -64 100 0
26 -65 100 0
33 -67 100 0
-34 47 -101 0
-20 73 -101 0
-30 -75 -101 0
-20 49 101 0
-15 76 101 0
34 -47 -102 0
-7 50 -102 0
25 -62 -102 0
-39 -62 -102 0
29 66 -102 0
19 74 -102 0
-3 49 102 0
24 61 102 0
7 -68 102 0
-27 -41 -103 0
-15 47 -103 0
22 -64 -103 0
-16 70 -103 0
36 45 103 0
11 48 103 0
24 -51 103 0
-37 -51 103 0
11 -52 103 0
-19 -79 103 0
-9 43 -104 0
-20 48 -104 0
-12 -72 -104 0
17 -74 -104 0
7 43 104 0
15 -48 104 0
-19 -57 104 0
33 57 104 0
9 44 -105 0
-38 -63 -105 0
18 -67 -105 0
-38 -42 105 0
27 -47 105 0
-19 -53 105 0
21 58 105 0
-40 62 105 0
35 68 105 0
-4 -56 -106 0
-31 -65 -106 0
-27 68 -106 0
-27 70 -106 0
-7 -77 -106 0
8 -47 106 0
1 54 106 0
24 57 106 0
-18 63 106 0
-28 -75 -107 0
-11 79 -107 0
13 46 107 0
-23 -50 107 0
17 60 107 0
-11 -66 107 0
-26 -68 107 0
-1 -43 -108 0
-19 48 -108 0
-18 -51 -108 0
15 55 -108 0
38 -63 -108 0
23 65 -108 0
-13 74 -108 0
13 -79 -108 0
40 -45 108 0
6 47 108 0
-6 -62 108 0
-30 75 108 0
8 -52 -109 0
-10 53 -109 0
24 -55 -109 0
-35 -65 -109 0
18 -74 -109 0
-19 -41 109 0
9 -62 109 0
15 63 109 0
-32 71 109 0
14 58 -110 0
7 -66 -110 0
-35 -73 -110 0
18 71 110 0
-40 71 110 0
22 77 110 0
-22 44 -111 0
1 -46 -111 0
38 -56 -111 0
11 -62 -111 0
15 -41 111 0
-33 -42 111 0
17 -55 -112 0
15 56 -112 0
20 -59 -112 0
27 70 -112 0
-22 -52 112 0
37 -66 112 0
40 69 112 0
17 70 112 0
37 -79 112 0
31 49 -113 0
-10 -64 -113 0
-9 -67 -113 0
19 80 -113 0
25 80 -113 0
30 -44 113 0
-30 54 113 0
-13 -57 113 0
-19 58 113 0
39 59 113 0
-21 -61 113 0
2 -72 113 0
30 55 -114 0
27 -64 -114 0
-35 73 -114 0
10 -79 -114 0
-38 79 -114 0
5 52 114 0
14 58 114 0
26 -62 114 0
-12 73 114 0
5 -79 114 0
35 45 -115 0
39 -61 -115 0
-13 -62 -115 0
-27 63 -115 0
12 -66 -115 0
15 -69 -115 0
38 -71 -115 0
-22 -47 115 0
-8 50 115 0
-26 -56 115 0
-31 -58 115 0
35 58 115 0
25 -64 115 0
38 70 115 0
-38 -72 115 0
-39 -72 115 0
-7 -73 115 0
-34 -80 115 0
-21 -43 -116 0
21 -48 -116 0
-24 60 -116 0
-10 62 -116 0
36 62 -116 0
-4 74 -116 0
-37 74 -116 0
6 75 -116 0
6 -60 116 0
22 50 -117 0
-33 54 -117 0
-29 -67 -117 0
-10 -68 117 0
4 -59 -118 0
-21 72 -118 0
-6 77 -118 0
36 -80 -118 0
-31 80 -118 0
2 -45 118 0
-17 51 118 0
-14 -57 118 0
-19 70 118 0
-34 -72 118 0
29 -80 118 0
-28 52 -119 0
24 -54 -119 0
-32 54 -119 0
-33 59 -119 0
12 -45 119 0
-8 -49 119 0
-14 57 119 0
-19 -63 119 0
-20 -46 -120 0
3 55 -120 0
1 -59 -120 0
-13 -69 -120 0
-22 -56 120 0
-33 56 120 0
-31 72 120 0
4 73 120 0
